p tw 204 241
1 2
2 113
3 14
3 99
4 117
5 6
6 117
7 8
8 9
9 10
10 11
11 12
12 13
13 15
14 97
14 25
14 69
14 119
14 153
14 171
14 26
14 106
14 127
14 52
14 99
14 190
14 7
15 16
15 23
16 17
17 18
18 19
19 20
19 21
20 21
21 22
22 117
23 24
24 117
25 36
26 27
27 28
28 29
29 30
29 32
30 31
31 106
32 33
33 34
34 35
35 37
36 47
37 38
38 39
38 40
39 117
40 41
41 42
42 43
43 44
44 45
45 46
45 50
46 48
47 58
47 106
48 49
49 50
49 32
50 51
51 117
52 53
53 54
54 55
55 56
56 57
56 60
57 59
58 117
59 60
60 61
61 62
62 63
63 64
63 66
64 65
65 68
66 67
67 68
68 70
69 80
70 71
71 72
72 73
73 74
74 75
75 76
76 77
77 78
78 79
78 95
79 81
79 85
80 91
81 82
82 83
83 84
84 85
84 90
85 86
86 87
87 88
88 89
88 90
89 117
90 92
91 102
92 93
93 94
94 76
95 96
96 117
97 98
98 117
99 100
100 101
101 103
102 114
102 106
103 104
104 105
105 117
106 107
107 108
108 128
109 110
110 111
111 112
112 115
113 128
114 117
115 116
116 117
117 118
119 120
120 121
121 122
122 123
122 124
123 117
124 125
125 126
126 106
127 129
128 139
129 130
130 131
131 132
132 133
133 134
134 135
134 136
135 117
136 137
137 138
138 140
139 150
139 109
140 141
141 142
142 143
142 149
143 144
144 145
145 146
146 147
147 148
147 149
148 117
149 151
150 161
151 152
152 106
153 154
154 155
155 156
156 157
156 166
157 158
158 159
159 160
160 162
161 172
162 163
163 164
164 165
165 166
165 168
166 167
167 117
168 169
169 170
170 106
171 173
172 183
173 174
174 175
175 176
175 185
176 177
177 178
178 179
179 180
180 181
181 182
182 184
183 194
184 185
184 187
185 186
186 117
187 188
188 189
189 106
190 191
191 192
192 193
193 195
194 3
195 196
196 197
197 198
198 199
198 5
199 200
200 201
201 202
202 203
202 204
203 204
204 4
